************************************************************************
file with basedata            : cm134_.bas
initial value random generator: 175966833
************************************************************************
projects                      :  1
jobs (incl. supersource/sink ):  18
horizon                       :  73
RESOURCES
  - renewable                 :  2   R
  - nonrenewable              :  2   N
  - doubly constrained        :  0   D
************************************************************************
PROJECT INFORMATION:
pronr.  #jobs rel.date duedate tardcost  MPM-Time
    1     16      0       37        8       37
************************************************************************
PRECEDENCE RELATIONS:
jobnr.    #modes  #successors   successors
   1        1          3           2   3   4
   2        1          3           5   6   7
   3        1          2           5  17
   4        1          3           8   9  13
   5        1          1           8
   6        1          2           8   9
   7        1          3          10  12  13
   8        1          2          12  14
   9        1          1          15
  10        1          1          11
  11        1          3          14  16  17
  12        1          2          15  16
  13        1          3          14  16  17
  14        1          1          15
  15        1          1          18
  16        1          1          18
  17        1          1          18
  18        1          0        
************************************************************************
REQUESTS/DURATIONS:
jobnr. mode duration  R 1  R 2  N 1  N 2
------------------------------------------------------------------------
  1      1     0       0    0    0    0
  2      1     3      10    0    8    4
  3      1     8       4    0    2    8
  4      1     1       0    7    6    5
  5      1     8       0    8    5    7
  6      1     5       6    0    7    4
  7      1     5       6    0   10    8
  8      1     9       6    0    4    5
  9      1     2       0    6    7    6
 10      1     3       0    4    5    6
 11      1     3       0    4    4    7
 12      1     9       8    0    3    2
 13      1     3       0    4    6    4
 14      1     2       0    9   10    9
 15      1     2       9    0    9    6
 16      1     3       0    6    8    4
 17      1     7       8    0    1    9
 18      1     0       0    0    0    0
************************************************************************
RESOURCEAVAILABILITIES:
  R 1  R 2  N 1  N 2
   13   16   95   94
************************************************************************
